p cnf 49 847
1 8 15 22 29 36 43 0
2 9 16 23 30 37 44 0
3 10 17 24 31 38 45 0
4 11 18 25 32 39 46 0
5 12 19 26 33 40 47 0
6 13 20 27 34 41 48 0
7 14 21 28 35 42 49 0
-1 -16 0
-1 -17 0
-1 -18 0
-1 -19 0
-1 -20 0
-1 -21 0
-2 -15 0
-2 -17 0
-2 -18 0
-2 -19 0
-2 -20 0
-2 -21 0
-3 -15 0
-3 -16 0
-3 -18 0
-3 -19 0
-3 -20 0
-3 -21 0
-4 -15 0
-4 -16 0
-4 -17 0
-4 -19 0
-4 -20 0
-4 -21 0
-5 -15 0
-5 -16 0
-5 -17 0
-5 -18 0
-5 -20 0
-5 -21 0
-6 -15 0
-6 -16 0
-6 -17 0
-6 -18 0
-6 -19 0
-6 -21 0
-7 -15 0
-7 -16 0
-7 -17 0
-7 -18 0
-7 -19 0
-7 -20 0
-1 -30 0
-1 -31 0
-1 -32 0
-1 -33 0
-1 -34 0
-1 -35 0
-2 -29 0
-2 -31 0
-2 -32 0
-2 -33 0
-2 -34 0
-2 -35 0
-3 -29 0
-3 -30 0
-3 -32 0
-3 -33 0
-3 -34 0
-3 -35 0
-4 -29 0
-4 -30 0
-4 -31 0
-4 -33 0
-4 -34 0
-4 -35 0
-5 -29 0
-5 -30 0
-5 -31 0
-5 -32 0
-5 -34 0
-5 -35 0
-6 -29 0
-6 -30 0
-6 -31 0
-6 -32 0
-6 -33 0
-6 -35 0
-7 -29 0
-7 -30 0
-7 -31 0
-7 -32 0
-7 -33 0
-7 -34 0
-1 -44 0
-1 -45 0
-1 -46 0
-1 -47 0
-1 -48 0
-1 -49 0
-2 -43 0
-2 -45 0
-2 -46 0
-2 -47 0
-2 -48 0
-2 -49 0
-3 -43 0
-3 -44 0
-3 -46 0
-3 -47 0
-3 -48 0
-3 -49 0
-4 -43 0
-4 -44 0
-4 -45 0
-4 -47 0
-4 -48 0
-4 -49 0
-5 -43 0
-5 -44 0
-5 -45 0
-5 -46 0
-5 -48 0
-5 -49 0
-6 -43 0
-6 -44 0
-6 -45 0
-6 -46 0
-6 -47 0
-6 -49 0
-7 -43 0
-7 -44 0
-7 -45 0
-7 -46 0
-7 -47 0
-7 -48 0
-8 -16 0
-8 -17 0
-8 -18 0
-8 -19 0
-8 -20 0
-8 -21 0
-9 -15 0
-9 -17 0
-9 -18 0
-9 -19 0
-9 -20 0
-9 -21 0
-10 -15 0
-10 -16 0
-10 -18 0
-10 -19 0
-10 -20 0
-10 -21 0
-11 -15 0
-11 -16 0
-11 -17 0
-11 -19 0
-11 -20 0
-11 -21 0
-12 -15 0
-12 -16 0
-12 -17 0
-12 -18 0
-12 -20 0
-12 -21 0
-13 -15 0
-13 -16 0
-13 -17 0
-13 -18 0
-13 -19 0
-13 -21 0
-14 -15 0
-14 -16 0
-14 -17 0
-14 -18 0
-14 -19 0
-14 -20 0
-22 -44 0
-22 -45 0
-22 -46 0
-22 -47 0
-22 -48 0
-22 -49 0
-23 -43 0
-23 -45 0
-23 -46 0
-23 -47 0
-23 -48 0
-23 -49 0
-24 -43 0
-24 -44 0
-24 -46 0
-24 -47 0
-24 -48 0
-24 -49 0
-25 -43 0
-25 -44 0
-25 -45 0
-25 -47 0
-25 -48 0
-25 -49 0
-26 -43 0
-26 -44 0
-26 -45 0
-26 -46 0
-26 -48 0
-26 -49 0
-27 -43 0
-27 -44 0
-27 -45 0
-27 -46 0
-27 -47 0
-27 -49 0
-28 -43 0
-28 -44 0
-28 -45 0
-28 -46 0
-28 -47 0
-28 -48 0
-29 -37 0
-29 -38 0
-29 -39 0
-29 -40 0
-29 -41 0
-29 -42 0
-30 -36 0
-30 -38 0
-30 -39 0
-30 -40 0
-30 -41 0
-30 -42 0
-31 -36 0
-31 -37 0
-31 -39 0
-31 -40 0
-31 -41 0
-31 -42 0
-32 -36 0
-32 -37 0
-32 -38 0
-32 -40 0
-32 -41 0
-32 -42 0
-33 -36 0
-33 -37 0
-33 -38 0
-33 -39 0
-33 -41 0
-33 -42 0
-34 -36 0
-34 -37 0
-34 -38 0
-34 -39 0
-34 -40 0
-34 -42 0
-35 -36 0
-35 -37 0
-35 -38 0
-35 -39 0
-35 -40 0
-35 -41 0
-29 -44 0
-29 -45 0
-29 -46 0
-29 -47 0
-29 -48 0
-29 -49 0
-30 -43 0
-30 -45 0
-30 -46 0
-30 -47 0
-30 -48 0
-30 -49 0
-31 -43 0
-31 -44 0
-31 -46 0
-31 -47 0
-31 -48 0
-31 -49 0
-32 -43 0
-32 -44 0
-32 -45 0
-32 -47 0
-32 -48 0
-32 -49 0
-33 -43 0
-33 -44 0
-33 -45 0
-33 -46 0
-33 -48 0
-33 -49 0
-34 -43 0
-34 -44 0
-34 -45 0
-34 -46 0
-34 -47 0
-34 -49 0
-35 -43 0
-35 -44 0
-35 -45 0
-35 -46 0
-35 -47 0
-35 -48 0
-36 -44 0
-36 -45 0
-36 -46 0
-36 -47 0
-36 -48 0
-36 -49 0
-37 -43 0
-37 -45 0
-37 -46 0
-37 -47 0
-37 -48 0
-37 -49 0
-38 -43 0
-38 -44 0
-38 -46 0
-38 -47 0
-38 -48 0
-38 -49 0
-39 -43 0
-39 -44 0
-39 -45 0
-39 -47 0
-39 -48 0
-39 -49 0
-40 -43 0
-40 -44 0
-40 -45 0
-40 -46 0
-40 -48 0
-40 -49 0
-41 -43 0
-41 -44 0
-41 -45 0
-41 -46 0
-41 -47 0
-41 -49 0
-42 -43 0
-42 -44 0
-42 -45 0
-42 -46 0
-42 -47 0
-42 -48 0
-1 -2 0
-1 -3 0
-1 -4 0
-1 -5 0
-1 -6 0
-1 -7 0
-2 -3 0
-2 -4 0
-2 -5 0
-2 -6 0
-2 -7 0
-3 -4 0
-3 -5 0
-3 -6 0
-3 -7 0
-4 -5 0
-4 -6 0
-4 -7 0
-5 -6 0
-5 -7 0
-6 -7 0
-8 -9 0
-8 -10 0
-8 -11 0
-8 -12 0
-8 -13 0
-8 -14 0
-9 -10 0
-9 -11 0
-9 -12 0
-9 -13 0
-9 -14 0
-10 -11 0
-10 -12 0
-10 -13 0
-10 -14 0
-11 -12 0
-11 -13 0
-11 -14 0
-12 -13 0
-12 -14 0
-13 -14 0
-15 -16 0
-15 -17 0
-15 -18 0
-15 -19 0
-15 -20 0
-15 -21 0
-16 -17 0
-16 -18 0
-16 -19 0
-16 -20 0
-16 -21 0
-17 -18 0
-17 -19 0
-17 -20 0
-17 -21 0
-18 -19 0
-18 -20 0
-18 -21 0
-19 -20 0
-19 -21 0
-20 -21 0
-22 -23 0
-22 -24 0
-22 -25 0
-22 -26 0
-22 -27 0
-22 -28 0
-23 -24 0
-23 -25 0
-23 -26 0
-23 -27 0
-23 -28 0
-24 -25 0
-24 -26 0
-24 -27 0
-24 -28 0
-25 -26 0
-25 -27 0
-25 -28 0
-26 -27 0
-26 -28 0
-27 -28 0
-29 -30 0
-29 -31 0
-29 -32 0
-29 -33 0
-29 -34 0
-29 -35 0
-30 -31 0
-30 -32 0
-30 -33 0
-30 -34 0
-30 -35 0
-31 -32 0
-31 -33 0
-31 -34 0
-31 -35 0
-32 -33 0
-32 -34 0
-32 -35 0
-33 -34 0
-33 -35 0
-34 -35 0
-36 -37 0
-36 -38 0
-36 -39 0
-36 -40 0
-36 -41 0
-36 -42 0
-37 -38 0
-37 -39 0
-37 -40 0
-37 -41 0
-37 -42 0
-38 -39 0
-38 -40 0
-38 -41 0
-38 -42 0
-39 -40 0
-39 -41 0
-39 -42 0
-40 -41 0
-40 -42 0
-41 -42 0
-43 -44 0
-43 -45 0
-43 -46 0
-43 -47 0
-43 -48 0
-43 -49 0
-44 -45 0
-44 -46 0
-44 -47 0
-44 -48 0
-44 -49 0
-45 -46 0
-45 -47 0
-45 -48 0
-45 -49 0
-46 -47 0
-46 -48 0
-46 -49 0
-47 -48 0
-47 -49 0
-48 -49 0
-1 -8  0
-1 -15  0
-1 -22  0
-1 -29  0
-1 -36  0
-1 -43  0
-2 -9  0
-2 -16  0
-2 -23  0
-2 -30  0
-2 -37  0
-2 -44  0
-3 -10  0
-3 -17  0
-3 -24  0
-3 -31  0
-3 -38  0
-3 -45  0
-4 -11  0
-4 -18  0
-4 -25  0
-4 -32  0
-4 -39  0
-4 -46  0
-5 -12  0
-5 -19  0
-5 -26  0
-5 -33  0
-5 -40  0
-5 -47  0
-6 -13  0
-6 -20  0
-6 -27  0
-6 -34  0
-6 -41  0
-6 -48  0
-7 -14  0
-7 -21  0
-7 -28  0
-7 -35  0
-7 -42  0
-7 -49  0
-8 -15  0
-8 -22  0
-8 -29  0
-8 -36  0
-8 -43  0
-9 -16  0
-9 -23  0
-9 -30  0
-9 -37  0
-9 -44  0
-10 -17  0
-10 -24  0
-10 -31  0
-10 -38  0
-10 -45  0
-11 -18  0
-11 -25  0
-11 -32  0
-11 -39  0
-11 -46  0
-12 -19  0
-12 -26  0
-12 -33  0
-12 -40  0
-12 -47  0
-13 -20  0
-13 -27  0
-13 -34  0
-13 -41  0
-13 -48  0
-14 -21  0
-14 -28  0
-14 -35  0
-14 -42  0
-14 -49  0
-15 -22  0
-15 -29  0
-15 -36  0
-15 -43  0
-16 -23  0
-16 -30  0
-16 -37  0
-16 -44  0
-17 -24  0
-17 -31  0
-17 -38  0
-17 -45  0
-18 -25  0
-18 -32  0
-18 -39  0
-18 -46  0
-19 -26  0
-19 -33  0
-19 -40  0
-19 -47  0
-20 -27  0
-20 -34  0
-20 -41  0
-20 -48  0
-21 -28  0
-21 -35  0
-21 -42  0
-21 -49  0
-22 -29  0
-22 -36  0
-22 -43  0
-23 -30  0
-23 -37  0
-23 -44  0
-24 -31  0
-24 -38  0
-24 -45  0
-25 -32  0
-25 -39  0
-25 -46  0
-26 -33  0
-26 -40  0
-26 -47  0
-27 -34  0
-27 -41  0
-27 -48  0
-28 -35  0
-28 -42  0
-28 -49  0
-29 -36  0
-29 -43  0
-30 -37  0
-30 -44  0
-31 -38  0
-31 -45  0
-32 -39  0
-32 -46  0
-33 -40  0
-33 -47  0
-34 -41  0
-34 -48  0
-35 -42  0
-35 -49  0
-36 -43  0
-37 -44  0
-38 -45  0
-39 -46  0
-40 -47  0
-41 -48  0
-42 -49  0
